NAME : portcgen-18-15
COMMENT : portcgen N=18, seed=15
TYPE : TSP
DIMENSION : 18
EDGE_WEIGHT_TYPE : EUC_2D
NODE_COORD_SECTION
1 122194 111805
2 -400636 -273308
3 186440 72017
4 205140 349273
5 53988 -368466
6 388599 -360849
7 286203 -9354
8 -264310 182513
9 397450 110219
10 -54425 -294957
11 105108 161925
12 -202667 193273
13 383242 -288234
14 -198552 -274547
15 348138 20116
16 -46968 -336189
17 -108749 144011
18 369570 247474
